# Solution for model MBA_ILP_BASE
# Objective value = 1.0285714285714286e+01
x_0_0_1_1 1
x_0_1_0_1 0
x_0_1_2_1 1
x_0_1_5_2 0
x_0_1_6_2 0
x_0_2_1_1 0
x_0_2_3_1 0
x_0_3_2_1 0
x_0_4_5_2 0
x_0_5_1_2 0
x_0_5_4_2 0
x_0_6_1_2 0
x_1_0_1_1 1
x_1_1_0_1 0
x_1_1_2_1 1
x_1_1_5_2 0
x_1_1_6_2 0
x_1_2_1_1 0
x_1_2_3_1 1
x_1_3_2_1 0
x_1_4_5_2 0
x_1_5_1_2 0
x_1_5_4_2 0
x_1_6_1_2 0
x_2_0_1_1 0
x_2_1_0_1 1
x_2_1_2_1 0
x_2_1_5_2 0
x_2_1_6_2 0
x_2_2_1_1 1
x_2_2_3_1 0
x_2_3_2_1 0
x_2_4_5_2 0
x_2_5_1_2 0
x_2_5_4_2 0
x_2_6_1_2 0
x_3_0_1_1 0
x_3_1_0_1 1
x_3_1_2_1 0
x_3_1_5_2 0
x_3_1_6_2 0
x_3_2_1_1 0
x_3_2_3_1 0
x_3_3_2_1 0
x_3_4_5_2 0
x_3_5_1_2 0
x_3_5_4_2 0
x_3_6_1_2 1
x_4_0_1_1 0
x_4_1_0_1 0
x_4_1_2_1 0
x_4_1_5_2 1
x_4_1_6_2 0
x_4_2_1_1 1
x_4_2_3_1 0
x_4_3_2_1 1
x_4_4_5_2 0
x_4_5_1_2 0
x_4_5_4_2 1
x_4_6_1_2 0
x_5_0_1_1 0
x_5_1_0_1 0
x_5_1_2_1 1
x_5_1_5_2 0
x_5_1_6_2 0
x_5_2_1_1 0
x_5_2_3_1 0
x_5_3_2_1 0
x_5_4_5_2 1
x_5_5_1_2 1
x_5_5_4_2 0
x_5_6_1_2 0
x_6_0_1_1 0
x_6_1_0_1 0
x_6_1_2_1 0
x_6_1_5_2 0
x_6_1_6_2 1
x_6_2_1_1 0
x_6_2_3_1 0
x_6_3_2_1 0
x_6_4_5_2 0
x_6_5_1_2 0
x_6_5_4_2 0
x_6_6_1_2 0
x_7_0_1_1 0
x_7_1_0_1 0
x_7_1_2_1 0
x_7_1_5_2 1
x_7_1_6_2 0
x_7_2_1_1 1
x_7_2_3_1 0
x_7_3_2_1 0
x_7_4_5_2 0
x_7_5_1_2 0
x_7_5_4_2 1
x_7_6_1_2 0
x_8_0_1_1 0
x_8_1_0_1 0
x_8_1_2_1 0
x_8_1_5_2 1
x_8_1_6_2 0
x_8_2_1_1 1
x_8_2_3_1 0
x_8_3_2_1 0
x_8_4_5_2 0
x_8_5_1_2 0
x_8_5_4_2 0
x_8_6_1_2 0
x_9_0_1_1 0
x_9_1_0_1 0
x_9_1_2_1 1
x_9_1_5_2 0
x_9_1_6_2 0
x_9_2_1_1 0
x_9_2_3_1 1
x_9_3_2_1 0
x_9_4_5_2 1
x_9_5_1_2 1
x_9_5_4_2 0
x_9_6_1_2 0
x_10_0_1_1 1
x_10_1_0_1 0
x_10_1_2_1 0
x_10_1_5_2 0
x_10_1_6_2 1
x_10_2_1_1 0
x_10_2_3_1 0
x_10_3_2_1 0
x_10_4_5_2 0
x_10_5_1_2 0
x_10_5_4_2 0
x_10_6_1_2 0
x_11_0_1_1 0
x_11_1_0_1 1
x_11_1_2_1 0
x_11_1_5_2 0
x_11_1_6_2 0
x_11_2_1_1 1
x_11_2_3_1 0
x_11_3_2_1 1
x_11_4_5_2 0
x_11_5_1_2 0
x_11_5_4_2 0
x_11_6_1_2 0
x_12_0_1_1 0
x_12_1_0_1 0
x_12_1_2_1 0
x_12_1_5_2 0
x_12_1_6_2 0
x_12_2_1_1 0
x_12_2_3_1 0
x_12_3_2_1 0
x_12_4_5_2 0
x_12_5_1_2 1
x_12_5_4_2 0
x_12_6_1_2 0
x_13_0_1_1 0
x_13_1_0_1 1
x_13_1_2_1 0
x_13_1_5_2 0
x_13_1_6_2 0
x_13_2_1_1 0
x_13_2_3_1 0
x_13_3_2_1 0
x_13_4_5_2 0
x_13_5_1_2 0
x_13_5_4_2 0
x_13_6_1_2 0
x_14_0_1_1 0
x_14_1_0_1 0
x_14_1_2_1 0
x_14_1_5_2 0
x_14_1_6_2 0
x_14_2_1_1 0
x_14_2_3_1 1
x_14_3_2_1 0
x_14_4_5_2 0
x_14_5_1_2 0
x_14_5_4_2 0
x_14_6_1_2 0
x_15_0_1_1 0
x_15_1_0_1 0
x_15_1_2_1 1
x_15_1_5_2 0
x_15_1_6_2 0
x_15_2_1_1 0
x_15_2_3_1 0
x_15_3_2_1 0
x_15_4_5_2 0
x_15_5_1_2 0
x_15_5_4_2 0
x_15_6_1_2 1
x_16_0_1_1 0
x_16_1_0_1 0
x_16_1_2_1 1
x_16_1_5_2 0
x_16_1_6_2 0
x_16_2_1_1 0
x_16_2_3_1 1
x_16_3_2_1 0
x_16_4_5_2 0
x_16_5_1_2 0
x_16_5_4_2 0
x_16_6_1_2 1
x_17_0_1_1 0
x_17_1_0_1 0
x_17_1_2_1 0
x_17_1_5_2 1
x_17_1_6_2 0
x_17_2_1_1 0
x_17_2_3_1 0
x_17_3_2_1 0
x_17_4_5_2 0
x_17_5_1_2 0
x_17_5_4_2 1
x_17_6_1_2 0
x_18_0_1_1 0
x_18_1_0_1 0
x_18_1_2_1 0
x_18_1_5_2 0
x_18_1_6_2 0
x_18_2_1_1 0
x_18_2_3_1 0
x_18_3_2_1 0
x_18_4_5_2 0
x_18_5_1_2 0
x_18_5_4_2 1
x_18_6_1_2 0
x_19_0_1_1 0
x_19_1_0_1 0
x_19_1_2_1 0
x_19_1_5_2 1
x_19_1_6_2 0
x_19_2_1_1 0
x_19_2_3_1 0
x_19_3_2_1 0
x_19_4_5_2 0
x_19_5_1_2 0
x_19_5_4_2 0
x_19_6_1_2 1
w_1_0 4
w_1_1 4
w_1_2 10
w_1_3 10
w_2_0 10
w_2_1 6
w_2_2 10
w_2_3 6
z_0_1 0
z_1_1 0
z_2_1 0
z_3_1 0
z_4_1 0
z_5_1 0
z_6_1 0
z_7_1 0
z_8_1 0
z_9_1 0
z_10_1 0
z_11_1 0
z_12_1 0
z_13_1 0
z_14_1 0
z_15_1 0
z_16_1 0
z_17_1 0
z_18_1 0
z_19_1 0
